p cnf 19 19
-1 2 5 9 14 0 
-2 1 5 9 -3 15 0 
-2 1 5 9 -4 16 0 
-5 1 2 9 17 0 
-6 -7 18 0 
-6 -4 19 0 
-8 15 0 
-9 1 2 5 14 0 
-6 -4 17 0 
-6 -3 14 0 
-6 -10 16 0 
-8 16 0 
-8 17 0 
-8 19 0 
-8 -11 18 0 
-8 18 0 
-12 -13 14 0 
-12 -3 19 0 
-12 -3 15 0 
